198
0 65 137 28 133 192 112 152 45 182 
14 110 13 12 71 58 138 140 161 156 
63 87 3 139 42 165 40 69 52 91 
51 122 105 167 89 76 150 146 130 148 
48 154 129 155 118 27 177 125 170 2 
115 108 82 126 18 4 178 66 88 149 
97 123 173 143 102 194 47 163 168 151 
79 33 90 128 68 75 73 171 17 78 
35 43 98 56 53 61 44 159 166 84 
41 135 62 24 160 85 36 7 54 117 
11 109 6 197 29 96 101 20 39 22 
153 60 107 180 74 103 164 70 50 162 
46 100 5 94 15 83 99 80 93 55 
49 131 21 175 127 193 86 157 32 184 
1 9 26 113 147 8 30 10 95 72 
189 145 134 119 77 37 120 67 59 81 
111 186 144 16 104 57 190 114 116 132 
121 142 38 195 92 191 179 172 64 181 
158 188 196 19 169 23 174 187 141 124 
25 183 176 185 31 136 106 34 
